BAYES
4
2 2 2 2
4
1 0
2 0 1
3 1 0 2
4 1 2 0 3

2
0.40 0.60

4
1.00 0.00 0.80 0.20

8
0.60 0.40 0.80 0.20 1.00 0.00 0.20 0.80

16
0.47 0.53 0.67 0.33 0.67 0.33 0.73 0.27 0.73 0.27 0.47 0.53 0.47 0.53 0.80 0.20

